75
3 67 90 111 
3 36 87 42 
3 11 92 97 
3 28 20 23 
3 12 6 5 
1 4 
2 50 24 
1 105 
1 89 
3 44 95 47 
3 104 32 75 
1 77 
2 10 7 
1 85 
1 103 
2 57 84 
2 39 70 
1 16 
1 48 
1 35 
3 68 13 116 
2 46 109 
1 27 
1 63 
3 40 96 71 
1 69 
2 62 55 
1 73 
3 17 8 98 
1 14 
2 34 91 
2 54 94 
1 49 
2 108 112 
1 82 
1 30 
1 65 
2 22 115 
1 33 
1 37 
2 79 113 
2 114 83 
3 110 72 107 
1 15 
2 64 76 
1 93 
1 2 
1 88 
2 100 3 
1 18 
1 43 
3 78 99 106 
1 25 
1 102 
1 58 
1 66 
1 120 
1 31 
1 53 
1 59 
3 60 45 1 
1 19 
1 117 
1 119 
1 118 
1 80 
1 38 
1 86 
1 51 
3 41 21 29 
2 81 26 
1 101 
2 9 74 
2 61 52 
1 56 
